Solutions	
719.0	
710.0	
704.0	
683.0	
683.0	
660.0	
642.0	
631.0	
621.0	
618.0	
615.0	
615.0	
615.0	
615.0	
615.0	
616.0	
617.0	
620.0	
623.0	
625.0	
629.0	
625.0	
629.0	
633.0	
638.0	
641.0	
647.0	
647.0	
645.0	
642.0	
641.0	
640.0	
640.0	
646.0	
643.0	
649.0	
645.0	
643.0	
644.0	
636.0	
633.0	
633.0	
636.0	
630.0	
627.0	
630.0	
631.0	
625.0	
620.0	
620.0	
621.0	
624.0	
626.0	
626.0	
626.0	
630.0	
634.0	
637.0	
640.0	
639.0	
636.0	
636.0	
641.0	
647.0	
641.0	
639.0	
636.0	
633.0	
633.0	
629.0	
630.0	
627.0	
625.0	
628.0	
629.0	
635.0	
645.0	
640.0	
653.0	
641.0	
641.0	
645.0	
648.0	
651.0	
655.0	
650.0	
654.0	
651.0	
650.0	
640.0	
630.0	
635.0	
640.0	
640.0	
647.0	
656.0	
654.0	
654.0	
655.0	
653.0	
655.0	
653.0	
654.0	
660.0	
659.0	
668.0	
665.0	
660.0	
649.0	
643.0	
640.0	
640.0	
643.0	
646.0	
650.0	
648.0	
642.0	
641.0	
641.0	
645.0	
650.0	
653.0	
657.0	
660.0	
660.0	
661.0	
667.0	
660.0	
656.0	
656.0	
660.0	
661.0	
659.0	
657.0	
657.0	
658.0	
654.0	
651.0	
651.0	
651.0	
653.0	
645.0	
643.0	
641.0	
645.0	
643.0	
642.0	
641.0	
641.0	
635.0	
638.0	
638.0	
631.0	
632.0	
632.0	
635.0	
639.0	
646.0	
637.0	
638.0	
647.0	
647.0	
644.0	
642.0	
642.0	
643.0	
646.0	
647.0	
637.0	
632.0	
632.0	
628.0	
634.0	
640.0	
631.0	
637.0	
637.0	
641.0	
645.0	
656.0	
645.0	
642.0	
641.0	
644.0	
644.0	
644.0	
648.0	
638.0	
638.0	
635.0	
629.0	
625.0	
625.0	
628.0	
635.0	
632.0	
630.0	
627.0	
626.0	
622.0	
623.0	
629.0	
636.0	
648.0	
657.0	
663.0	
665.0	
655.0	
655.0	
655.0	
658.0	
